decision_x1=[0,7];
decision_x2=[0,7];
decision_x3=[0,7];
decision_x4=[0,7];
decision_x5=[0,7];
decision_x6=[0,7];
decision_x7=[0,7];
decision_x8=[0,7];
decision_x9=[0,7];
decision_x10=[0,7];
decision_x11=[0,7];
decision_x12=[0,7];
decision_x13=[0,7];
decision_x14=[0,7];
decision_x15=[0,7];
decision_x16=[0,7];
decision_x17=[0,7];
decision_x18=[0,7];
random_y1=[0,7];
random_y2=[0,7];
random_y3=[0,7];
random_y4=[0,7];
random_y5=[0,7];
random_y6=[0,7];
random_y7=[0,7];
random_y8=[0,7];
constraint_x2_x1=[
0,0,3.9|
0,1,6.4|
0,2,6.7|
0,3,2|
0,4,1.4|
0,5,1.3|
0,6,1.5|
0,7,4.4|
1,0,8.3|
1,1,1.3|
1,2,8.9|
1,3,7.3|
1,4,6.9|
1,5,9.7|
1,6,9|
1,7,1.8|
2,0,2.3|
2,1,5.1|
2,2,1.4|
2,3,5.7|
2,4,7.5|
2,5,3.8|
2,6,8.9|
2,7,1.6|
3,0,2|
3,1,3.5|
3,2,9.9|
3,3,9.4|
3,4,8.7|
3,5,7.3|
3,6,5|
3,7,3.8|
4,0,3.6|
4,1,4.8|
4,2,6.1|
4,3,6.8|
4,4,4.6|
4,5,8.7|
4,6,6.8|
4,7,3.8|
5,0,1.5|
5,1,1.1|
5,2,5|
5,3,9.2|
5,4,6.5|
5,5,4.3|
5,6,8|
5,7,1.6|
6,0,2|
6,1,9.9|
6,2,5.2|
6,3,8.7|
6,4,1.9|
6,5,3|
6,6,5.9|
6,7,7.9|
7,0,4.3|
7,1,9.6|
7,2,4.6|
7,3,7.6|
7,4,6.1|
7,5,8.3|
7,6,2.2|
7,7,5.2|
];
constraint_x3_x2=[
0,0,6.9|
0,1,6.3|
0,2,4.4|
0,3,0.6|
0,4,9.3|
0,5,8|
0,6,6.9|
0,7,5.1|
1,0,0.49|
1,1,7.4|
1,2,2.8|
1,3,8.1|
1,4,1.1|
1,5,0.66|
1,6,2|
1,7,1.8|
2,0,4.1|
2,1,6.3|
2,2,0.92|
2,3,3|
2,4,3|
2,5,3.6|
2,6,1.3|
2,7,3.4|
3,0,2|
3,1,8.3|
3,2,4.5|
3,3,7.5|
3,4,2.8|
3,5,7.8|
3,6,8.2|
3,7,5.1|
4,0,0.69|
4,1,1.7|
4,2,5.9|
4,3,1|
4,4,0.27|
4,5,9.3|
4,6,9.2|
4,7,7.3|
5,0,8.2|
5,1,8.2|
5,2,1.8|
5,3,6.7|
5,4,2.8|
5,5,1.6|
5,6,9|
5,7,6|
6,0,3.7|
6,1,5.7|
6,2,3.7|
6,3,6.2|
6,4,2.3|
6,5,0.6|
6,6,6.4|
6,7,8.7|
7,0,1.2|
7,1,9.5|
7,2,5|
7,3,7.1|
7,4,9.3|
7,5,6.4|
7,6,3.7|
7,7,8|
];
constraint_x4_x3=[
0,0,6|
0,1,0.69|
0,2,2.7|
0,3,3.9|
0,4,7.2|
0,5,4|
0,6,9.5|
0,7,4.1|
1,0,9.3|
1,1,5.6|
1,2,8.7|
1,3,3.3|
1,4,2.3|
1,5,7.1|
1,6,4.4|
1,7,4.6|
2,0,4.9|
2,1,0.83|
2,2,5.1|
2,3,5.3|
2,4,4|
2,5,4.4|
2,6,5.3|
2,7,2.8|
3,0,4.4|
3,1,4.2|
3,2,8.5|
3,3,0.56|
3,4,2.9|
3,5,7.6|
3,6,0.032|
3,7,7.5|
4,0,4.5|
4,1,3.8|
4,2,0.8|
4,3,5.2|
4,4,0.89|
4,5,5.9|
4,6,8.4|
4,7,8.6|
5,0,1.8|
5,1,10|
5,2,6.8|
5,3,9.6|
5,4,7.9|
5,5,4.9|
5,6,8.2|
5,7,7.7|
6,0,5.9|
6,1,5.2|
6,2,0.75|
6,3,7.6|
6,4,9.3|
6,5,4.3|
6,6,0.19|
6,7,0.45|
7,0,0.19|
7,1,4.7|
7,2,7.8|
7,3,6.7|
7,4,5.3|
7,5,0.86|
7,6,3.4|
7,7,7.1|
];
constraint_x5_x1=[
0,0,7.4|
0,1,5.2|
0,2,8|
0,3,5.9|
0,4,5.2|
0,5,1.2|
0,6,0.15|
0,7,3.9|
1,0,8.6|
1,1,0.54|
1,2,1.7|
1,3,4.9|
1,4,0.53|
1,5,9.8|
1,6,4|
1,7,0.53|
2,0,9.9|
2,1,1.6|
2,2,0.45|
2,3,8.3|
2,4,7.9|
2,5,2.5|
2,6,2.3|
2,7,0.81|
3,0,2.8|
3,1,1.1|
3,2,2|
3,3,9.1|
3,4,5.7|
3,5,1.1|
3,6,2.9|
3,7,2.6|
4,0,4.6|
4,1,3.6|
4,2,9.7|
4,3,1.9|
4,4,5.4|
4,5,8.8|
4,6,1|
4,7,0.56|
5,0,7|
5,1,7.2|
5,2,9.4|
5,3,8.6|
5,4,8.2|
5,5,5|
5,6,9.1|
5,7,1.8|
6,0,7.6|
6,1,9.7|
6,2,4.3|
6,3,1.2|
6,4,3.6|
6,5,7|
6,6,5|
6,7,6.9|
7,0,7.3|
7,1,4.1|
7,2,3.7|
7,3,2.8|
7,4,9.7|
7,5,0.14|
7,6,3.9|
7,7,0.8|
];
constraint_x6_x2=[
0,0,8.9|
0,1,6|
0,2,7.9|
0,3,6.5|
0,4,1.9|
0,5,2.2|
0,6,3.8|
0,7,4.7|
1,0,0.21|
1,1,5.9|
1,2,5.6|
1,3,1.4|
1,4,4.6|
1,5,9.5|
1,6,9.6|
1,7,7.7|
2,0,8.6|
2,1,9.2|
2,2,3.1|
2,3,1.8|
2,4,8.3|
2,5,0.25|
2,6,0.93|
2,7,6.8|
3,0,2.9|
3,1,2.6|
3,2,2.7|
3,3,1.6|
3,4,6|
3,5,3|
3,6,1.6|
3,7,0.082|
4,0,9.2|
4,1,7.2|
4,2,6|
4,3,8.2|
4,4,6.5|
4,5,2.3|
4,6,3.3|
4,7,2.3|
5,0,5.8|
5,1,0.0077|
5,2,0.28|
5,3,8.8|
5,4,8.4|
5,5,6.7|
5,6,2.3|
5,7,4.4|
6,0,2.9|
6,1,5.9|
6,2,6.6|
6,3,1.5|
6,4,9.1|
6,5,6|
6,6,4.9|
6,7,1.3|
7,0,4.8|
7,1,4|
7,2,5.2|
7,3,7.1|
7,4,7.2|
7,5,5.5|
7,6,3.1|
7,7,2.7|
];
constraint_x7_x3=[
0,0,6.3|
0,1,0.2|
0,2,9.2|
0,3,4.9|
0,4,5.2|
0,5,8.4|
0,6,1.8|
0,7,0.89|
1,0,3.7|
1,1,0.75|
1,2,2.9|
1,3,5.6|
1,4,6|
1,5,9.6|
1,6,6.3|
1,7,7.6|
2,0,6.9|
2,1,3.6|
2,2,3.7|
2,3,6.2|
2,4,2.8|
2,5,0.59|
2,6,1.6|
2,7,4.5|
3,0,9.2|
3,1,2.5|
3,2,4.7|
3,3,3.1|
3,4,7.5|
3,5,6.9|
3,6,9|
3,7,0.023|
4,0,2.8|
4,1,5.1|
4,2,1.3|
4,3,7.2|
4,4,1.4|
4,5,4.6|
4,6,7.6|
4,7,5.7|
5,0,8.6|
5,1,2.8|
5,2,5.7|
5,3,3.7|
5,4,2.8|
5,5,6.6|
5,6,9|
5,7,3.9|
6,0,4.2|
6,1,4.5|
6,2,6|
6,3,6.5|
6,4,7.7|
6,5,0.98|
6,6,2.6|
6,7,2.3|
7,0,0.44|
7,1,8.3|
7,2,8.1|
7,3,4.6|
7,4,2|
7,5,7|
7,6,7.6|
7,7,3.1|
];
constraint_x8_x4=[
0,0,5.2|
0,1,0.58|
0,2,6.2|
0,3,2.2|
0,4,6.9|
0,5,0.1|
0,6,2.9|
0,7,8.3|
1,0,3.5|
1,1,9.2|
1,2,4.5|
1,3,4.1|
1,4,5.4|
1,5,5.8|
1,6,4.7|
1,7,7.8|
2,0,5.3|
2,1,4.7|
2,2,7.7|
2,3,1.4|
2,4,3.3|
2,5,9|
2,6,3.4|
2,7,3.4|
3,0,1.1|
3,1,4.2|
3,2,6.2|
3,3,5|
3,4,9.7|
3,5,3.8|
3,6,4.8|
3,7,7.3|
4,0,0.2|
4,1,3.3|
4,2,3.2|
4,3,5.2|
4,4,5.5|
4,5,8.2|
4,6,8.7|
4,7,2.6|
5,0,4.5|
5,1,5.5|
5,2,0.89|
5,3,6.8|
5,4,7.4|
5,5,0.28|
5,6,7.6|
5,7,0.15|
6,0,2.8|
6,1,9.5|
6,2,1.9|
6,3,4|
6,4,0.58|
6,5,0.95|
6,6,6.7|
6,7,5.4|
7,0,0.7|
7,1,9|
7,2,7.1|
7,3,6|
7,4,6.7|
7,5,6.5|
7,6,2.8|
7,7,1.5|
];
constraint_x9_x5=[
0,0,7.4|
0,1,5.6|
0,2,6.7|
0,3,3.3|
0,4,2.6|
0,5,9|
0,6,3|
0,7,9.3|
1,0,5|
1,1,9.8|
1,2,7.1|
1,3,6.7|
1,4,1.1|
1,5,1.5|
1,6,8.5|
1,7,8.8|
2,0,2.3|
2,1,5.7|
2,2,8.6|
2,3,5.8|
2,4,1.3|
2,5,5.6|
2,6,7.8|
2,7,8|
3,0,2.4|
3,1,4.7|
3,2,9|
3,3,4.6|
3,4,9.5|
3,5,5.2|
3,6,1.8|
3,7,7.4|
4,0,1.8|
4,1,4.5|
4,2,1.4|
4,3,3.2|
4,4,8.3|
4,5,8.2|
4,6,0.42|
4,7,4.6|
5,0,2.8|
5,1,3.5|
5,2,0.068|
5,3,3.4|
5,4,2.5|
5,5,7.7|
5,6,9.6|
5,7,2.3|
6,0,2.2|
6,1,6.9|
6,2,5.3|
6,3,6.8|
6,4,2.6|
6,5,6.3|
6,6,3.8|
6,7,7.7|
7,0,0.85|
7,1,8.6|
7,2,2.1|
7,3,0.094|
7,4,5.2|
7,5,2.4|
7,6,0.46|
7,7,1.5|
];
constraint_x10_x6=[
0,0,6.7|
0,1,4.5|
0,2,7.4|
0,3,4.5|
0,4,0.097|
0,5,5.6|
0,6,7.8|
0,7,6.5|
1,0,5.1|
1,1,9.4|
1,2,1.7|
1,3,2.7|
1,4,3.8|
1,5,8.9|
1,6,6.1|
1,7,6.9|
2,0,8|
2,1,4.6|
2,2,2.5|
2,3,1.7|
2,4,1.6|
2,5,0.96|
2,6,4.4|
2,7,9.2|
3,0,0.66|
3,1,1.6|
3,2,8.3|
3,3,0.47|
3,4,4.2|
3,5,8.9|
3,6,6|
3,7,4.2|
4,0,0.35|
4,1,5.9|
4,2,5.2|
4,3,1.9|
4,4,6.2|
4,5,6.3|
4,6,7.4|
4,7,4.9|
5,0,3.8|
5,1,7|
5,2,7.4|
5,3,1.5|
5,4,2.1|
5,5,6.5|
5,6,4.8|
5,7,7.4|
6,0,2.2|
6,1,3.1|
6,2,6.2|
6,3,2.6|
6,4,5.3|
6,5,3.6|
6,6,8.4|
6,7,4.2|
7,0,9.2|
7,1,9.4|
7,2,5.3|
7,3,5.3|
7,4,7|
7,5,6.2|
7,6,7.5|
7,7,0.54|
];
constraint_x11_x7=[
0,0,8.1|
0,1,6.3|
0,2,3.8|
0,3,3.2|
0,4,9.3|
0,5,7|
0,6,0.08|
0,7,5.8|
1,0,3.7|
1,1,4.6|
1,2,0.84|
1,3,6.2|
1,4,8.7|
1,5,1.3|
1,6,5.9|
1,7,4.7|
2,0,5|
2,1,4.2|
2,2,7.9|
2,3,9.2|
2,4,7.9|
2,5,0.056|
2,6,8.5|
2,7,8.9|
3,0,1.6|
3,1,0.62|
3,2,7.5|
3,3,9.9|
3,4,7.6|
3,5,3.5|
3,6,3.8|
3,7,5.4|
4,0,8.2|
4,1,1.8|
4,2,2.9|
4,3,5.1|
4,4,0.54|
4,5,1|
4,6,1.2|
4,7,6|
5,0,7.9|
5,1,7.4|
5,2,9.2|
5,3,4.9|
5,4,6.2|
5,5,9.9|
5,6,4.6|
5,7,3.3|
6,0,1.2|
6,1,3.5|
6,2,9.2|
6,3,8.3|
6,4,7.4|
6,5,6.8|
6,6,4.8|
6,7,8.8|
7,0,7.5|
7,1,3.1|
7,2,7.4|
7,3,7.5|
7,4,5.6|
7,5,2.9|
7,6,8|
7,7,0.18|
];
constraint_x12_x8=[
0,0,7|
0,1,0.98|
0,2,8.8|
0,3,8.8|
0,4,2.9|
0,5,7.3|
0,6,3.4|
0,7,7|
1,0,4.6|
1,1,3.9|
1,2,5.5|
1,3,1.5|
1,4,9.3|
1,5,5.8|
1,6,3.5|
1,7,5.5|
2,0,9.8|
2,1,2.1|
2,2,6.2|
2,3,5.2|
2,4,2.6|
2,5,9.8|
2,6,1.1|
2,7,6.8|
3,0,0.55|
3,1,7.7|
3,2,6.9|
3,3,5|
3,4,2.6|
3,5,2.8|
3,6,3|
3,7,0.79|
4,0,6.5|
4,1,8.8|
4,2,5.2|
4,3,9.3|
4,4,4.8|
4,5,5.5|
4,6,2|
4,7,9.1|
5,0,7.6|
5,1,0.69|
5,2,9.7|
5,3,2.4|
5,4,2.5|
5,5,6.6|
5,6,9.7|
5,7,0.42|
6,0,8.4|
6,1,3.9|
6,2,4|
6,3,5|
6,4,2.4|
6,5,3.9|
6,6,6.5|
6,7,4.1|
7,0,5.1|
7,1,7.2|
7,2,7.6|
7,3,0.2|
7,4,1.4|
7,5,2.5|
7,6,7.4|
7,7,5.3|
];
constraint_x13_x9=[
0,0,7.6|
0,1,7.1|
0,2,3.2|
0,3,8.8|
0,4,8.2|
0,5,2.4|
0,6,3|
0,7,3.4|
1,0,8.2|
1,1,7.3|
1,2,1.2|
1,3,0.51|
1,4,4.9|
1,5,9.9|
1,6,8.9|
1,7,1.1|
2,0,3.6|
2,1,0.84|
2,2,6.3|
2,3,1.3|
2,4,0.33|
2,5,4.3|
2,6,7.6|
2,7,0.25|
3,0,8.6|
3,1,8.9|
3,2,9.8|
3,3,1.9|
3,4,7|
3,5,4.1|
3,6,6.7|
3,7,4.9|
4,0,0.98|
4,1,2.7|
4,2,7.1|
4,3,0.099|
4,4,6|
4,5,2.1|
4,6,7.9|
4,7,2.1|
5,0,0.044|
5,1,6.8|
5,2,9.4|
5,3,5.6|
5,4,8.2|
5,5,5.6|
5,6,9.1|
5,7,1.9|
6,0,9.2|
6,1,2.8|
6,2,6.9|
6,3,4.2|
6,4,6.8|
6,5,0.73|
6,6,4.9|
6,7,1.8|
7,0,7.7|
7,1,4.9|
7,2,6.6|
7,3,7.5|
7,4,8|
7,5,1.7|
7,6,7.5|
7,7,2.4|
];
constraint_x14_x10=[
0,0,6.3|
0,1,7|
0,2,0.66|
0,3,5.4|
0,4,1.3|
0,5,1.5|
0,6,4.4|
0,7,5.4|
1,0,2.8|
1,1,3.7|
1,2,6.2|
1,3,6.9|
1,4,6.8|
1,5,6.9|
1,6,4.7|
1,7,5.4|
2,0,4.4|
2,1,8.2|
2,2,1.7|
2,3,6.9|
2,4,9.1|
2,5,8.2|
2,6,1.7|
2,7,7.5|
3,0,3.2|
3,1,0.61|
3,2,9|
3,3,4.7|
3,4,8.9|
3,5,0.65|
3,6,5.5|
3,7,5.2|
4,0,7.3|
4,1,4|
4,2,7.8|
4,3,1.1|
4,4,4.8|
4,5,9.2|
4,6,2.7|
4,7,1.9|
5,0,2|
5,1,9.7|
5,2,4.5|
5,3,6.2|
5,4,1.7|
5,5,3.8|
5,6,9.1|
5,7,1.4|
6,0,9.3|
6,1,1.4|
6,2,5.1|
6,3,9.2|
6,4,6.1|
6,5,0.95|
6,6,5.6|
6,7,8.2|
7,0,0.014|
7,1,2.1|
7,2,2.3|
7,3,3.8|
7,4,2.5|
7,5,2.3|
7,6,7.8|
7,7,3.4|
];
constraint_x15_x11=[
0,0,9.1|
0,1,3.8|
0,2,5|
0,3,5.9|
0,4,3.3|
0,5,4.4|
0,6,8.8|
0,7,2.2|
1,0,8.6|
1,1,8.3|
1,2,3.5|
1,3,7.3|
1,4,6.7|
1,5,1.8|
1,6,0.4|
1,7,9.9|
2,0,7|
2,1,4.4|
2,2,5.7|
2,3,3|
2,4,3.6|
2,5,6.2|
2,6,3.5|
2,7,4.2|
3,0,7|
3,1,8.7|
3,2,5|
3,3,8.4|
3,4,5.4|
3,5,6.4|
3,6,6.5|
3,7,5.5|
4,0,0.54|
4,1,0.29|
4,2,1.9|
4,3,6.8|
4,4,3.1|
4,5,3.7|
4,6,8.3|
4,7,7.6|
5,0,6.2|
5,1,0.03|
5,2,2|
5,3,6|
5,4,0.94|
5,5,9.4|
5,6,1.6|
5,7,5.3|
6,0,4.2|
6,1,4.3|
6,2,7.5|
6,3,3.3|
6,4,5.6|
6,5,8.9|
6,6,9.8|
6,7,1.3|
7,0,3.2|
7,1,6.8|
7,2,2.4|
7,3,1.8|
7,4,0.29|
7,5,9.6|
7,6,6|
7,7,3.9|
];
constraint_x16_x12=[
0,0,4.2|
0,1,9.1|
0,2,7.9|
0,3,2.1|
0,4,2.7|
0,5,1.8|
0,6,3.1|
0,7,2.1|
1,0,1.8|
1,1,6.8|
1,2,7.1|
1,3,9.9|
1,4,6.5|
1,5,0.77|
1,6,1.3|
1,7,4.5|
2,0,7.7|
2,1,7.2|
2,2,6.8|
2,3,6.2|
2,4,1.4|
2,5,9.9|
2,6,1.4|
2,7,3.5|
3,0,4.4|
3,1,1.9|
3,2,6.4|
3,3,3.4|
3,4,1.8|
3,5,6.9|
3,6,7.3|
3,7,8.3|
4,0,3.6|
4,1,5.1|
4,2,10|
4,3,1.8|
4,4,8.6|
4,5,6.4|
4,6,0.32|
4,7,9.4|
5,0,0.43|
5,1,8|
5,2,8.8|
5,3,8|
5,4,1.7|
5,5,4.6|
5,6,6.4|
5,7,4.6|
6,0,6.7|
6,1,6|
6,2,2.5|
6,3,10|
6,4,8.4|
6,5,3.8|
6,6,4.4|
6,7,1.2|
7,0,2.1|
7,1,0.3|
7,2,6.1|
7,3,4.2|
7,4,7.9|
7,5,2.6|
7,6,4.1|
7,7,4.4|
];
constraint_x17_x13=[
0,0,1.9|
0,1,6.9|
0,2,6.2|
0,3,1.6|
0,4,4.1|
0,5,4.3|
0,6,6.9|
0,7,1.9|
1,0,3.5|
1,1,5.9|
1,2,2|
1,3,1.2|
1,4,0.0022|
1,5,1.8|
1,6,5.6|
1,7,9.1|
2,0,3.2|
2,1,6.9|
2,2,0.67|
2,3,7.1|
2,4,4|
2,5,6.3|
2,6,2.8|
2,7,8.2|
3,0,4.8|
3,1,8.4|
3,2,7.3|
3,3,7.1|
3,4,1.9|
3,5,1.6|
3,6,6.4|
3,7,1.2|
4,0,6.9|
4,1,7.2|
4,2,6.5|
4,3,3|
4,4,4.1|
4,5,1.5|
4,6,7.4|
4,7,3.8|
5,0,7.7|
5,1,0.35|
5,2,3.2|
5,3,5.3|
5,4,0.59|
5,5,5.9|
5,6,9.5|
5,7,6.4|
6,0,0.44|
6,1,6.4|
6,2,1.1|
6,3,1.3|
6,4,5.6|
6,5,3.2|
6,6,4.1|
6,7,7.4|
7,0,1.8|
7,1,3.6|
7,2,1.3|
7,3,8.3|
7,4,1.3|
7,5,6.2|
7,6,7.5|
7,7,7.8|
];
constraint_x18_x14=[
0,0,0.4|
0,1,0.63|
0,2,6.9|
0,3,2|
0,4,3.6|
0,5,0.65|
0,6,3.1|
0,7,1.4|
1,0,3.7|
1,1,2.4|
1,2,8.2|
1,3,6.5|
1,4,0.83|
1,5,0.98|
1,6,3.2|
1,7,9.5|
2,0,0.038|
2,1,3.4|
2,2,3.3|
2,3,4.9|
2,4,8.7|
2,5,9.9|
2,6,7.7|
2,7,5.9|
3,0,0.59|
3,1,7.6|
3,2,6.8|
3,3,2.5|
3,4,1|
3,5,2.3|
3,6,6.7|
3,7,0.097|
4,0,9.6|
4,1,1.7|
4,2,1.8|
4,3,7.3|
4,4,5|
4,5,3.5|
4,6,3.3|
4,7,9.5|
5,0,9.8|
5,1,1.8|
5,2,7.3|
5,3,6.6|
5,4,1|
5,5,5.7|
5,6,7.6|
5,7,6.4|
6,0,3.5|
6,1,0.067|
6,2,3.8|
6,3,3.9|
6,4,3|
6,5,3.1|
6,6,5.2|
6,7,3.2|
7,0,3.4|
7,1,2.8|
7,2,7.3|
7,3,2.5|
7,4,0.83|
7,5,7.1|
7,6,1.9|
7,7,6.9|
];
constraint_x1_y1=[
0,0,7.5|
0,1,9.2|
0,2,8.8|
0,3,0.93|
0,4,4.9|
0,5,5.3|
0,6,3.3|
0,7,5.3|
1,0,4.5|
1,1,6.6|
1,2,5|
1,3,3.8|
1,4,9.2|
1,5,3.1|
1,6,9.4|
1,7,8.5|
2,0,1.4|
2,1,6.1|
2,2,8.6|
2,3,4.9|
2,4,7.7|
2,5,2|
2,6,5.3|
2,7,7.4|
3,0,5.3|
3,1,6|
3,2,7.8|
3,3,5.7|
3,4,6.6|
3,5,0.34|
3,6,2.6|
3,7,5.4|
4,0,3|
4,1,7.4|
4,2,4.1|
4,3,9.5|
4,4,9|
4,5,9.6|
4,6,2.9|
4,7,7|
5,0,5.5|
5,1,5.9|
5,2,9.5|
5,3,0.2|
5,4,0.9|
5,5,6.5|
5,6,8.1|
5,7,2|
6,0,5.6|
6,1,9.8|
6,2,4.4|
6,3,5.1|
6,4,3.1|
6,5,3.1|
6,6,2.6|
6,7,3.3|
7,0,9.6|
7,1,7.4|
7,2,5.8|
7,3,4.3|
7,4,0.5|
7,5,7.3|
7,6,3.7|
7,7,2.2|
];
constraint_x2_y2=[
0,0,4.9|
0,1,3.9|
0,2,2|
0,3,9.2|
0,4,2.8|
0,5,1.8|
0,6,8|
0,7,0.54|
1,0,8.3|
1,1,3.9|
1,2,2.2|
1,3,2.9|
1,4,0.91|
1,5,4.9|
1,6,5.5|
1,7,7.8|
2,0,9.7|
2,1,5.2|
2,2,1|
2,3,2.9|
2,4,7|
2,5,1.5|
2,6,7.1|
2,7,2.3|
3,0,7|
3,1,9.1|
3,2,1.4|
3,3,6.6|
3,4,4.9|
3,5,9.9|
3,6,9.6|
3,7,2.2|
4,0,6.4|
4,1,2.6|
4,2,6.6|
4,3,0.81|
4,4,4.1|
4,5,7.7|
4,6,9.2|
4,7,7.1|
5,0,4.2|
5,1,2.4|
5,2,9|
5,3,8.5|
5,4,0.015|
5,5,3.7|
5,6,5.6|
5,7,9.7|
6,0,2.6|
6,1,2.7|
6,2,1.2|
6,3,5.2|
6,4,7.1|
6,5,0.48|
6,6,2|
6,7,7.1|
7,0,8|
7,1,6.4|
7,2,1.8|
7,3,9.1|
7,4,1.7|
7,5,8.9|
7,6,4.6|
7,7,1.2|
];
constraint_x3_y3=[
0,0,9.1|
0,1,1.6|
0,2,1.1|
0,3,6.2|
0,4,2.3|
0,5,2.9|
0,6,5.3|
0,7,4.3|
1,0,3.4|
1,1,1.3|
1,2,0.76|
1,3,6.1|
1,4,5.7|
1,5,1.9|
1,6,3.8|
1,7,4|
2,0,8.5|
2,1,2.2|
2,2,0.85|
2,3,0.36|
2,4,1.6|
2,5,7.5|
2,6,4.4|
2,7,2|
3,0,5.1|
3,1,6|
3,2,9.2|
3,3,2.1|
3,4,2.6|
3,5,8.2|
3,6,2.6|
3,7,4.8|
4,0,7.9|
4,1,0.23|
4,2,6.4|
4,3,0.037|
4,4,7.7|
4,5,8.8|
4,6,0.5|
4,7,3.3|
5,0,5.8|
5,1,3.3|
5,2,7.8|
5,3,2.3|
5,4,3.7|
5,5,3.4|
5,6,6|
5,7,7.2|
6,0,1.6|
6,1,8.2|
6,2,5.4|
6,3,3|
6,4,8.1|
6,5,1.1|
6,6,3.7|
6,7,1.6|
7,0,5.8|
7,1,1.8|
7,2,3.5|
7,3,7.8|
7,4,6.6|
7,5,4.7|
7,6,5.4|
7,7,8.5|
];
constraint_x4_y4=[
0,0,8.6|
0,1,4.2|
0,2,0.98|
0,3,7.1|
0,4,4.3|
0,5,7.6|
0,6,6.5|
0,7,6.5|
1,0,2.9|
1,1,2.2|
1,2,9.7|
1,3,7.1|
1,4,9.3|
1,5,6.2|
1,6,3.4|
1,7,0.4|
2,0,0.64|
2,1,8.8|
2,2,0.61|
2,3,2.4|
2,4,4.1|
2,5,4.1|
2,6,3.1|
2,7,5.2|
3,0,5.9|
3,1,5.2|
3,2,0.11|
3,3,8.6|
3,4,7.2|
3,5,0.89|
3,6,3.8|
3,7,8.4|
4,0,8.8|
4,1,2.8|
4,2,7.1|
4,3,8.1|
4,4,8.3|
4,5,2.7|
4,6,6.8|
4,7,2.1|
5,0,1|
5,1,9.1|
5,2,2.1|
5,3,3.3|
5,4,5.8|
5,5,5|
5,6,2.4|
5,7,6.5|
6,0,4.3|
6,1,7.6|
6,2,2.5|
6,3,9.1|
6,4,9.5|
6,5,9.5|
6,6,5|
6,7,4.6|
7,0,9.6|
7,1,5.8|
7,2,9.3|
7,3,1.4|
7,4,4.9|
7,5,0.16|
7,6,9.2|
7,7,4.3|
];
constraint_x5_y5=[
0,0,2.2|
0,1,4.1|
0,2,8.2|
0,3,9.1|
0,4,4.5|
0,5,0.84|
0,6,9|
0,7,0.0087|
1,0,9.7|
1,1,1.8|
1,2,4.7|
1,3,4.8|
1,4,1.6|
1,5,2.5|
1,6,0.31|
1,7,2.5|
2,0,5.5|
2,1,7.1|
2,2,5.7|
2,3,0.86|
2,4,9.2|
2,5,4.1|
2,6,3.9|
2,7,8.9|
3,0,5.3|
3,1,4.4|
3,2,9.3|
3,3,6.1|
3,4,6.6|
3,5,6.3|
3,6,7.8|
3,7,9.6|
4,0,7|
4,1,8.2|
4,2,3.3|
4,3,8|
4,4,3.7|
4,5,2.2|
4,6,8.6|
4,7,8.4|
5,0,0.34|
5,1,1.1|
5,2,5.8|
5,3,1.4|
5,4,0.52|
5,5,0.67|
5,6,9|
5,7,9.9|
6,0,2.2|
6,1,5.4|
6,2,4.9|
6,3,7.4|
6,4,2.3|
6,5,1.1|
6,6,4.8|
6,7,8.6|
7,0,2.3|
7,1,8|
7,2,6.4|
7,3,0.5|
7,4,1.8|
7,5,4.5|
7,6,4.6|
7,7,3.2|
];
constraint_x6_y6=[
0,0,1.5|
0,1,9|
0,2,8.7|
0,3,7.6|
0,4,0.48|
0,5,3.1|
0,6,2.2|
0,7,3.9|
1,0,5.3|
1,1,7.2|
1,2,8.9|
1,3,0.52|
1,4,0.85|
1,5,9.4|
1,6,3.8|
1,7,2.2|
2,0,2.1|
2,1,5.5|
2,2,5.5|
2,3,9.8|
2,4,5.5|
2,5,5.7|
2,6,1.3|
2,7,7|
3,0,3.7|
3,1,8.1|
3,2,7.3|
3,3,3.5|
3,4,8.1|
3,5,0.64|
3,6,5.2|
3,7,0.76|
4,0,2.8|
4,1,3.9|
4,2,1.4|
4,3,2.7|
4,4,5.4|
4,5,2.1|
4,6,1.7|
4,7,1.7|
5,0,8.8|
5,1,9.1|
5,2,9.1|
5,3,4.5|
5,4,9|
5,5,7|
5,6,9.8|
5,7,3.1|
6,0,7.1|
6,1,9.3|
6,2,5.6|
6,3,5.6|
6,4,6.1|
6,5,3.2|
6,6,5.1|
6,7,4.7|
7,0,3.5|
7,1,3.1|
7,2,2.8|
7,3,7|
7,4,5.8|
7,5,2|
7,6,6.5|
7,7,2.6|
];
constraint_x7_y7=[
0,0,0.028|
0,1,7.7|
0,2,2.4|
0,3,7.4|
0,4,0.099|
0,5,5.8|
0,6,6|
0,7,5.7|
1,0,2.2|
1,1,6.8|
1,2,0.55|
1,3,0.4|
1,4,2.2|
1,5,8.2|
1,6,8.8|
1,7,7.2|
2,0,2.6|
2,1,7.4|
2,2,7.7|
2,3,2.2|
2,4,9.4|
2,5,1.9|
2,6,5.6|
2,7,2.9|
3,0,8.8|
3,1,8.8|
3,2,6.6|
3,3,7.3|
3,4,0.21|
3,5,7.6|
3,6,7|
3,7,5.2|
4,0,4.9|
4,1,4.7|
4,2,6.1|
4,3,7.7|
4,4,0.86|
4,5,4.1|
4,6,7.1|
4,7,1.4|
5,0,9.3|
5,1,3.3|
5,2,2.6|
5,3,2.8|
5,4,7|
5,5,5.5|
5,6,6|
5,7,4.2|
6,0,7.8|
6,1,8.8|
6,2,6.9|
6,3,4.5|
6,4,1.3|
6,5,8.2|
6,6,6|
6,7,5.5|
7,0,4.6|
7,1,6|
7,2,6.3|
7,3,2.6|
7,4,5.7|
7,5,3|
7,6,8.9|
7,7,7.6|
];
constraint_x8_y8=[
0,0,0.68|
0,1,3.2|
0,2,9.5|
0,3,3.6|
0,4,3.3|
0,5,4.5|
0,6,5.8|
0,7,2.2|
1,0,7|
1,1,9.9|
1,2,6|
1,3,1.4|
1,4,5.8|
1,5,6|
1,6,6.8|
1,7,5.3|
2,0,3.6|
2,1,4.9|
2,2,5.6|
2,3,5.7|
2,4,7.4|
2,5,0.58|
2,6,6.6|
2,7,9.3|
3,0,4|
3,1,6.3|
3,2,2|
3,3,8.7|
3,4,1.9|
3,5,9.6|
3,6,8.8|
3,7,4.6|
4,0,1.7|
4,1,7.2|
4,2,5.9|
4,3,4.6|
4,4,1.8|
4,5,8.8|
4,6,0.72|
4,7,2.9|
5,0,5.9|
5,1,1.4|
5,2,8.6|
5,3,7.7|
5,4,3.2|
5,5,9.9|
5,6,9.7|
5,7,4.6|
6,0,2|
6,1,5.1|
6,2,6.2|
6,3,9.4|
6,4,4.2|
6,5,1.5|
6,6,0.84|
6,7,0.22|
7,0,4.7|
7,1,6|
7,2,9.3|
7,3,3.1|
7,4,3.8|
7,5,5.2|
7,6,0.51|
7,7,6.5|
];
initial_distribution_y1=[0.11,0.083,0.22,0.095,0.1,0.17,0.014,0.2];
initial_distribution_y2=[0.18,0.16,0.12,0.0032,0.17,0.13,0.066,0.16];
initial_distribution_y3=[0.089,0.14,0.21,0.013,0.099,0.11,0.17,0.17];
initial_distribution_y4=[0.051,0.098,0.14,0.035,0.011,0.042,0.19,0.43];
initial_distribution_y5=[0.26,0.1,0.056,0.19,0.24,0.0059,0.076,0.072];
initial_distribution_y6=[0.14,0.1,0.0037,0.25,0.024,0.25,0.18,0.046];
initial_distribution_y7=[0.17,0.14,0.27,0.17,0.14,0.032,0.057,0.009];
initial_distribution_y8=[0.016,0.074,0.23,0.13,0.21,0.062,0.22,0.048];
transition_y1=[
0.081,0.051,0.27,0.019,0.27,0.12,0.19,0.009|
0.087,0.091,0.13,0.13,0.014,0.26,0.05,0.23|
0.13,0.14,0.18,0.13,0.16,0.13,0.11,0.0094|
0.11,0.17,0.25,0.07,0.18,0.069,0.095,0.055|
0.16,0.15,0.18,0.063,0.098,0.048,0.14,0.17|
0.26,0.07,0.1,0.021,0.21,0.095,0.14,0.1|
0.03,0.2,0.14,0.12,0.21,0.19,0.079,0.038|
0.15,0.11,0.14,0.14,0.11,0.019,0.18,0.15|
];
transition_y2=[
0.024,0.11,0.039,0.12,0.26,0.074,0.2,0.18|
0.066,0.16,0.2,0.068,0.043,0.22,0.1,0.14|
0.085,0.28,0.024,0.041,0.046,0.38,0.13,0.011|
0.13,0.2,0.19,0.064,0.057,0.15,0.073,0.14|
0.23,0.023,0.16,0.045,0.22,0.17,0.028,0.13|
0.12,0.25,0.14,0.12,0.14,0.0088,0.083,0.14|
0.093,0.17,0.048,0.11,0.082,0.18,0.18,0.13|
0.17,0.11,0.065,0.14,0.093,0.17,0.18,0.071|
];
transition_y3=[
0.19,0.21,0.16,0.092,0.0089,0.068,0.24,0.033|
0.14,0.16,0.11,0.1,0.16,0.018,0.17,0.15|
0.11,0.19,0.072,0.28,0.035,0.22,0.053,0.038|
0.13,0.16,0.13,0.1,0.091,0.16,0.089,0.13|
0.048,0.037,0.032,0.21,0.25,0.23,0.097,0.096|
0.12,0.075,0.24,0.093,0.0042,0.25,0.027,0.2|
0.14,0.022,0.011,0.2,0.066,0.28,0.25,0.04|
0.13,0.12,0.17,0.15,0.18,0.17,0.072,0.025|
];
transition_y4=[
0.19,0.15,0.01,0.17,0.22,0.061,0.14,0.06|
0.19,0.059,0.031,0.2,0.17,0.098,0.22,0.034|
0.15,0.042,0.2,0.031,0.096,0.16,0.22,0.1|
0.16,0.09,0.14,0.15,0.069,0.15,0.091,0.15|
0.076,0.033,0.09,0.012,0.19,0.096,0.24,0.26|
0.1,0.072,0.0074,0.024,0.16,0.24,0.061,0.33|
0.17,0.18,0.13,0.027,0.095,0.13,0.074,0.19|
0.15,0.17,0.046,0.13,0.17,0.1,0.16,0.078|
];
transition_y5=[
0.078,0.17,0.033,0.15,0.07,0.18,0.24,0.084|
0.083,0.082,0.11,0.11,0.24,0.094,0.25,0.037|
0.15,0.11,0.094,0.056,0.18,0.19,0.16,0.059|
0.076,0.22,0.19,0.098,0.14,0.073,0.032,0.17|
0.1,0.063,0.1,0.11,0.047,0.19,0.34,0.04|
0.071,0.053,0.12,0.085,0.1,0.17,0.21,0.18|
0.21,0.14,0.16,0.074,0.086,0.079,0.22,0.022|
0.18,0.16,0.04,0.058,0.17,0.15,0.055,0.19|
];
transition_y6=[
0.099,0.044,0.23,0.21,0.061,0.19,0.03,0.14|
0.13,0.14,0.14,0.15,0.14,0.093,0.07,0.13|
0.096,0.12,0.21,0.19,0.15,0.15,0.023,0.068|
0.13,0.06,0.24,0.052,0.15,0.22,0.057,0.092|
0.15,0.072,0.18,0.096,0.13,0.061,0.18,0.13|
0.08,0.24,0.095,0.16,0.025,0.19,0.19,0.022|
0.19,0.09,0.16,0.11,0.19,0.068,0.19,0.0062|
0.041,0.19,0.18,0.23,0.26,0.013,0.041,0.047|
];
transition_y7=[
0.17,0.1,0.14,0.006,0.17,0.093,0.15,0.18|
0.15,0.032,0.18,0.25,0.015,0.22,0.14,0.013|
0.16,0.23,0.25,0.054,0.08,0.034,0.019,0.18|
0.13,0.11,0.21,0.17,0.016,0.053,0.12,0.18|
0.15,0.031,0.18,0.15,0.17,0.18,0.071,0.057|
0.1,0.19,0.078,0.064,0.098,0.23,0.2,0.041|
0.24,0.0089,0.2,0.019,0.16,0.076,0.057,0.25|
0.016,0.054,0.23,0.22,0.049,0.16,0.25,0.022|
];
transition_y8=[
0.064,0.21,0.17,0.2,0.1,0.039,0.14,0.073|
0.0068,0.11,0.12,0.19,0.097,0.022,0.25,0.2|
0.23,0.11,0.25,0.082,0.061,0.03,0.011,0.23|
0.19,0.21,0.15,0.0021,0.064,0.18,0.11,0.1|
0.15,0.21,0.05,0.032,0.35,0.075,0.082,0.045|
0.073,0.13,0.14,0.13,0.07,0.2,0.088,0.17|
0.064,0.18,0.018,0.073,0.21,0.021,0.29,0.15|
0.15,0.066,0.07,0.1,0.21,0.15,0.047,0.2|
];
